6364.0
1 1 1 1 1 1 1 1 1 1 
0 2 0 0 0 2 0 0 2 0 1 2 1 1 1 2 1 2 2 2 2 2 2 2 2 2 2 3 3 3 3 3 3 3 3 4 4 4 4 4 4 4 4 4 4 4 4 5 5 5 5 5 5 5 6 6 6 6 6 6 6 6 7 7 6 7 6 0 7 7 7 7 7 7 8 8 6 8 8 8 8 8 9 0 9 9 0 9 9 9 